45 27 53 78 2 65 6 5 74 42 50 19 60 11 71 7 79 22 36 44 64 28 24 33 68 1 49 13 46 20 55 59 16 34 10 57 12 37 61 43 51 17 47 73 41 76 14 21 30 72 35 23 62 3 29 9 56 52 26 66 8 39 15 75 4 58 31 18 32 70 0 67 77 63 48 40 38 25 54 69